%NProcShared=4
#HF/6-31G* SCF=tight Test Pop=MK iop(6/33=2) iop(6/42=6) iop(6/50=1) opt

 Title

-2 1
O          4.91400        0.45700      -25.85200
O          6.68500       -0.67200      -26.98700
O          0.50500       -2.24300      -20.42400
O         -0.04200       -4.27700      -21.55200
O          7.36100       -3.79600      -23.33900
C          5.27500       -2.41500      -21.80700
C          5.67100       -2.04000      -23.19300
C          3.88700       -2.94600      -21.78800
C          6.70800       -2.72400      -23.89200
C          5.02400       -0.94700      -23.82600
C          5.41900       -0.55200      -25.11500
C          6.44900       -1.20300      -25.77100
C          2.87200       -2.25200      -21.08300
C          1.56900       -2.77000      -21.05400
C          7.12100       -2.27900      -25.16900
C          3.55400       -4.15500      -22.45500
C          1.25600       -3.95100      -21.70500
C          2.24000       -4.66700      -22.40900
C          5.68700        0.36500      -27.06600
C         -0.53700       -3.17700      -20.76300
C          8.75600       -3.54900      -23.07200
H          5.32500       -1.53200      -21.17000
H          5.95200       -3.18700      -21.44100
H          4.22300       -0.41500      -23.31300
H          3.10400       -1.32100      -20.56500
H          7.95100       -2.76600      -25.68100
H          4.32300       -4.69400      -23.01000
H          1.99100       -5.60300      -22.91000
H          5.53500        1.00200      -27.93700
H         -1.57800       -3.06600      -20.45800
H          9.16400       -4.46200      -22.63900
H          9.22500       -3.30900      -24.02600
H          8.80400       -2.71300      -22.37500

